Problem:    
Rows:       163
Columns:    57 (42 integer, 42 binary)
Non-zeros:  620
Status:     INTEGER OPTIMAL
Objective:  value = 28.112607 (MINimum)

   No.   Row name        Activity     Lower bound   Upper bound
------ ------------    ------------- ------------- -------------
     1 r.5                   28.1126             0               
     2 r.6                   25.8058      -989.216               
     3 r.7                   1028.11             0               
     4 r.8                  -974.194      -987.011               
     5 r.9                   1028.11             0               
     6 r.10                 -978.142      -991.124               
     7 r.11                  28.1126             0               
     8 r.12                  28.0063      -989.209               
     9 r.13                  28.1126             0               
    10 r.14                  25.8058      -993.068               
    11 r.15                  1028.11             0               
    12 r.16                 -987.183      -992.098               
    13 r.17                  1028.11             0               
    14 r.18                 -988.328      -999.108               
    15 r.19                  28.1126             0               
    16 r.20                  14.2556      -998.701               
    17 r.21                  1028.11             0               
    18 r.22                 -994.311      -997.095               
    19 r.23                  28.1126             0               
    20 r.24                 -992.951      -995.735               
    21 r.25                  1028.11             0               
    22 r.26                  -998.36       -998.36               
    23 r.27                  28.1126             0               
    24 r.28                 -988.541      -988.541               
    25 r.29                  28.1126             0               
    26 r.30                  28.1126      -993.501               
    27 r.31                  1028.11             0               
    28 r.32                 -971.887      -997.693               
    29 r.33                        1             1             = 
    30 r.34                        1             1             = 
    31 r.35                        1             1             = 
    32 r.36                        1             1             = 
    33 r.37                        1             1             = 
    34 r.38                        1             1             = 
    35 r.39                        1             1             = 
    36 r.40                     1001             2               
    37 r.41                    -1001         -1001               
    38 r.42                  1996.05      -991.124               
    39 r.43                     1001             2               
    40 r.44                    -1001         -1001               
    41 r.45                   2002.2      -989.209               
    42 r.46                     1000             2               
    43 r.47                    -1000         -1001               
    44 r.48                     2000      -993.068               
    45 r.49                        2             2               
    46 r.50                       -2         -1001               
    47 r.51                  -12.989      -992.098               
    48 r.52                   12.989      -989.216               
    49 r.53                 -987.011      -987.011               
    50 r.54                   12.989      -989.216               
    51 r.55                 -987.011      -987.011               
    52 r.56                  15.0252      -989.216               
    53 r.57                 -984.975      -987.011               
    54 r.58                   1022.4      -989.216               
    55 r.59                  22.3962      -987.011               
    56 r.60                  2.30683      -993.501               
    57 r.61                 -997.693      -997.693               
    58 r.62                  2.30683      -993.501               
    59 r.63                 -997.693      -997.693               
    60 r.64                     1001             2               
    61 r.65                    -1001         -1001               
    62 r.66                     2000       10.7842               
    63 r.67                     1001             2               
    64 r.68                    -1001         -1001               
    65 r.69                     2000        12.989               
    66 r.70                     1001             2               
    67 r.71                    -1001         -1001               
    68 r.72                     2000      -993.068               
    69 r.73                     1001             2               
    70 r.74                    -1001         -1001               
    71 r.75                  1987.01      -992.098               
    72 r.76                 -990.959      -991.124               
    73 r.77                  15.1895      -989.209               
    74 r.78                 -990.959      -991.124               
    75 r.79                  15.1895      -989.209               
    76 r.80                        2             2               
    77 r.81                       -2         -1001               
    78 r.82                 -20.1171      -997.095               
    79 r.83                     1000             2               
    80 r.84                    -1000         -1001               
    81 r.85                  981.243      -995.735               
    82 r.86                 -980.926      -991.124               
    83 r.87                  25.2223      -989.209               
    84 r.88                  11.8377      -991.124               
    85 r.89                  1017.99      -989.209               
    86 r.90                  2.30683      -993.501               
    87 r.91                 -997.693      -997.693               
    88 r.92                  2.30683      -993.501               
    89 r.93                 -997.693      -997.693               
    90 r.94                     1000             2               
    91 r.95                    -1000         -1001               
    92 r.96                     2000       10.7842               
    93 r.97                        2             2               
    94 r.98                       -2         -1001               
    95 r.99                   12.989        12.989               
    96 r.100                    1001             2               
    97 r.101                   -1001         -1001               
    98 r.102                 1996.05        8.8761               
    99 r.103                    1001             2               
   100 r.104                   -1001         -1001               
   101 r.105                 2015.19        10.791               
   102 r.106                    1001             2               
   103 r.107                   -1001         -1001               
   104 r.108                 1985.87      -999.108               
   105 r.109                    1001             2               
   106 r.110                   -1001         -1001               
   107 r.111                 2001.44      -998.701               
   108 r.112                    1001             2               
   109 r.113                   -1001         -1001               
   110 r.114                 1979.88      -997.095               
   111 r.115                    1001             2               
   112 r.116                   -1001         -1001               
   113 r.117                 994.232      -995.735               
   114 r.118                 23.0218      -993.068               
   115 r.119                -989.967      -992.098               
   116 r.120                 1015.79      -993.068               
   117 r.121                 2.79629      -992.098               
   118 r.122                 2.30683      -993.501               
   119 r.123                -997.693      -997.693               
   120 r.124                 15.2958      -993.501               
   121 r.125                -984.704      -997.693               
   122 r.126                    1001             2               
   123 r.127                   -1001         -1001               
   124 r.128                 2012.99       6.93219               
   125 r.129                    1001             2               
   126 r.130                   -1001         -1001               
   127 r.131                    2000       7.90163               
   128 r.132                       2             2               
   129 r.133                      -2         -1001               
   130 r.134                -7.12807      -997.095               
   131 r.135                    1000             2               
   132 r.136                   -1000         -1001               
   133 r.137                 994.232      -995.735               
   134 r.138                -991.112      -999.108               
   135 r.139                 11.4716      -998.701               
   136 r.140                 1.65197      -999.108               
   137 r.141                 1004.24      -998.701               
   138 r.142                       2             2               
   139 r.143                      -2         -1001               
   140 r.144                 11.0776        8.8761               
   141 r.145                    1000             2               
   142 r.146                   -1000         -1001               
   143 r.147                  3024.6        10.791               
   144 r.148                    1001             2               
   145 r.149                   -1001         -1001               
   146 r.150                 2015.03       6.93219               
   147 r.151                    1001             2               
   148 r.152                   -1001         -1001               
   149 r.153                 3009.41       7.90163               
   150 r.154                       2             2               
   151 r.155                      -2         -1001               
   152 r.156                0.891878      0.891878               
   153 r.157                    1000             2               
   154 r.158                   -1000         -1001               
   155 r.159                 3010.85       1.29878               
   156 r.160                -997.095      -997.095               
   157 r.161                -995.735      -995.735               
   158 r.162                -4.33179      -997.095               
   159 r.163                 -2.9715      -995.735               
   160 r.164                  17.332      -993.501               
   161 r.165                -982.668      -997.693               
   162 r.166                  1024.7      -993.501               
   163 r.167                  24.703      -997.693               

   No. Column name       Activity     Lower bound   Upper bound
------ ------------    ------------- ------------- -------------
     1 tt                    28.1126             0               
     2 s_1_1        *              0             0             1 
     3 t_1_1                 2.30683             0               
     4 s_1_7        *              0             0             1 
     5 s_2_1        *              1             0             1 
     6 t_2_1                 2.30683             0               
     7 s_2_7        *              1             0             1 
     8 s_1_2        *              1             0             1 
     9 t_1_2                 2.30683             0               
    10 s_2_2        *              0             0             1 
    11 t_2_2                 2.30683             0               
    12 s_1_3        *              0             0             1 
    13 t_1_3                 2.30683             0               
    14 s_2_3        *              1             0             1 
    15 t_2_3                 15.2958             0               
    16 s_1_4        *              1             0             1 
    17 t_1_4                 15.2958             0               
    18 s_2_4        *              0             0             1 
    19 t_2_4                 15.2958             0               
    20 s_1_5        *              1             0             1 
    21 t_1_5                  17.332             0               
    22 s_2_5        *              0             0             1 
    23 t_2_5                  1024.7             0               
    24 s_1_6        *              1             0             1 
    25 t_1_6                 25.3286             0               
    26 s_2_6        *              0             0             1 
    27 t_2_6                 1018.09             0               
    28 t_1_7                       0             0               
    29 t_2_7                       0             0               
    30 r_1_1_2      *              1             0             1 
    31 u_1_1_2      *              0             0             1 
    32 r_2_1_2      *              1             0             1 
    33 u_2_1_2      *              0             0             1 
    34 r_1_1_3      *              1             0             1 
    35 u_1_1_3      *              0             0             1 
    36 r_2_1_3      *              0             0             1 
    37 u_2_1_3      *              0             0             1 
    38 r_1_2_3      *              1             0             1 
    39 u_1_2_3      *              0             0             1 
    40 r_2_2_3      *              1             0             1 
    41 u_2_2_3      *              0             0             1 
    42 r_1_2_5      *              0             0             1 
    43 u_1_2_5      *              0             0             1 
    44 r_2_2_5      *              1             0             1 
    45 u_2_2_5      *              0             0             1 
    46 r_1_3_4      *              1             0             1 
    47 u_1_3_4      *              0             0             1 
    48 r_2_3_4      *              1             0             1 
    49 u_2_3_4      *              0             0             1 
    50 r_1_3_5      *              1             0             1 
    51 u_1_3_5      *              0             0             1 
    52 r_2_3_5      *              1             0             1 
    53 u_2_3_5      *              0             0             1 
    54 r_1_4_5      *              0             0             1 
    55 u_1_4_5      *              0             0             1 
    56 r_2_4_5      *              1             0             1 
    57 u_2_4_5      *              0             0             1 

Integer feasibility conditions:

KKT.PE: max.abs.err = 2.27e-13 on row 41
        max.rel.err = 6.51e-17 on row 135
        High quality

KKT.PB: max.abs.err = 2.27e-13 on row 51
        max.rel.err = 8.22e-16 on row 152
        High quality

End of output
